50
23466

807 783
949 487
811 941
67 778
19 708
735 353
297 625
269 143
554 884
791 588
44 294
440 749
194 842
167 127
777 237
594 788
955 983
82 321
200 250
58 160
680 767
501 859
689 378
919 232
373 234
216 719
980 272
740 4
995 864
140 206
949 872
860 28
534 917
945 206
723 853
1 779
418 740
491 204
169 407
529 20
717 326
380 288
662 520
95 850
688 574
418 847
494 16
218 805
747 580
732 664
